n_res = 4;
rc = [ 22, 24, 28, 29 ];
n_tasks = 30;
d = [ 2, 2, 10, 6, 5, 5, 8, 5, 10, 3, 8, 3, 9, 1, 1, 1, 3, 2, 6, 10, 10, 2, 7, 3, 9, 3, 2, 4, 6, 6 ];
rr = [| 0, 4, 0, 3, 8, 6, 4, 5, 8, 6, 1, 0, 4, 2, 6, 9, 1, 1, 7, 0, 6, 0, 0, 3, 10, 0, 5, 8, 3, 6
      | 1, 0, 8, 0, 0, 6, 5, 0, 6, 0, 6, 10, 0, 9, 9, 8, 1, 1, 4, 9, 5, 0, 3, 0, 8, 8, 7, 8, 5, 4
      | 8, 0, 0, 5, 6, 7, 5, 4, 6, 10, 8, 2, 3, 2, 1, 5, 0, 5, 6, 2, 8, 5, 2, 0, 6, 9, 8, 10, 4, 9
      | 0, 4, 6, 10, 8, 0, 1, 0, 9, 0, 1, 9, 6, 2, 7, 0, 6, 0, 6, 7, 9, 8, 0, 10, 0, 2, 0, 3, 10, 0 |];
suc = [ { 2 }, 
        { 1 }, 
        { 4 }, 
        { 3 }, 
        { 6 }, 
        { 5 }, 
        { 8 }, 
        { 7 }, 
        { 10 }, 
        { 9 }, 
        { 12 }, 
        { 11 }, 
        { 14 }, 
        { 13 }, 
        { 16 }, 
        { 15 }, 
        { 18 }, 
        { 17 }, 
        { 20 }, 
        { 19 }, 
        { 22 }, 
        { 21 }, 
        { 24 }, 
        { 23 }, 
        { 26 }, 
        { 25 }, 
        { 28 }, 
        { 27 }, 
        { 30 }, 
        { 29 }]; 
